
;this file is automatically generated: Sun Oct 25 10:43:47 CST 2020

;declarations generated

(declare-fun obj_99bf87e4_1c87_4afd_932f_a9626d780b68 ( Int) Int)
(declare-fun oclExcludes ( Int Int) Bool)
(declare-fun Cardinality ( Int) Int)
(declare-fun oclSelect ( Int Bool) Int)
(declare-fun Enum0 ( Int) Int)
(declare-fun Enum1 ( Int) Int)
(declare-fun container_ ( Int) Int)
(declare-fun type_4b26cc1e_326e_4b99_8879_fe160d520dc9_Class18 ( Int) Bool)
(declare-fun type_4b26cc1e_326e_4b99_8879_fe160d520dc9_Class19 ( Int) Bool)
(declare-fun oclIncludes ( Int Int) Bool)
(declare-fun ObjAt ( Int Int) Int)

;formula(s) generated
(assert (forall ((p Int)) (=> ( type_4b26cc1e_326e_4b99_8879_fe160d520dc9_Class18 p )  (and (>= ( Enum0 ( obj_99bf87e4_1c87_4afd_932f_a9626d780b68 p )  )  0) (<= ( Enum0 ( obj_99bf87e4_1c87_4afd_932f_a9626d780b68 p )  )  3)))))
(assert (! (forall ((c1 Int)) (=> (and ( type_4b26cc1e_326e_4b99_8879_fe160d520dc9_Class18 c1 )  ( type_4b26cc1e_326e_4b99_8879_fe160d520dc9_Class19 c1 ) ) (= ( Enum0 ( obj_99bf87e4_1c87_4afd_932f_a9626d780b68 c1 )  )  3))):named l0))
(assert (exists ((o Int)) (and ( type_4b26cc1e_326e_4b99_8879_fe160d520dc9_Class18 ( obj_99bf87e4_1c87_4afd_932f_a9626d780b68 o )  )  ( type_4b26cc1e_326e_4b99_8879_fe160d520dc9_Class19 ( obj_99bf87e4_1c87_4afd_932f_a9626d780b68 o )  ) )))

 ;end of formula 